language ESSENCE' 1.0
$ Minion SolverNodes: 73
$ Minion SolverTotalTime: 0.054903
$ Minion SolverTimeOut: 0
$ Savile Row TotalTime: 0.508
letting cells be [[1, 3], 
[1, 2], 
[1, 1], 
[2, 1], 
[3, 1], 
[4, 1], 
[4, 2], 
[4, 3], 
[4, 4], 
[3, 4], 
[2, 4], 
[2, 3], 
[2, 2], 
[3, 2], 
[3, 3]]
